coords = array2d(1..27, 1..2, [771, 51, 392, 365, 621, 647, 343, 717, 867, 104,
    903, 763, 940, 191, 49, 209, 36, 773, 628, 535, 587, 294, 715,
    694, 186, 781, 17, 300, 672, 853, 77, 54, 576, 152, 614, 148, 41,
    535, 360, 942, 329, 895, 129, 398, 577, 221, 777, 477, 353, 570,
    624, 691, 372, 909]);

n = 27;

